TC_ILP/hal_1.0.lp
Minimize
M1 + M2
Subject To
x0,5 = 1
x1,5 = 1
x2,3 = 1
x3,2 = 1
x4,1 = 1
x5,4 + x5,5 = 1
x6,2 + x6,3 = 1
x7,2 + x7,3 + x7,4 + x7,5 = 1
x8,1 + x8,2 + x8,3 + x8,4 = 1
x9,2 + x9,3 + x9,4 + x9,5 + x9,6 = 1
x10,1 + x10,2 + x10,3 + x10,4 + x10,5 = 1
x4,1 + x8,1 + x10,1 - M2 <= 0
x3,2 + x8,2 + x9,2 + x10,2 - M2 <= 0
x6,2 + x6,1 + x7,2 + x7,1 - M1 <= 0
x8,3 + x9,3 + x10,3 - M2 <= 0
x2,3 + x2,2 + x6,3 + x6,2 + x7,3 + x7,2 - M1 <= 0
x8,4 + x9,4 + x10,4 - M2 <= 0
x2,4 + x2,3 + x5,4 + x5,3 + x6,4 + x6,3 + x7,4 + x7,3 - M1 <= 0
x9,5 + x10,5 - M2 <= 0
x0,5 + x0,4 + x1,5 + x1,4 + x5,5 + x5,4 + x7,5 + x7,4 - M1 <= 0
x0,6 + x0,5 + x1,6 + x1,5 + x5,6 + x5,5 + x7,6 + x7,5 - M1 <= 0
3 x2,3 - 5 x0,5 <= -2
3 x2,3 - 5 x1,5 <= -2
2 x3,2 - 3 x2,3 <= -1
1 x4,1 - 2 x3,2 <= -1
1 x4,1 - 2 x6,2 - 3 x6,3 <= -1
2 x6,2 + 3 x6,3 - 4 x5,4 - 5 x5,5 <= -2
1 x8,1 + 2 x8,2 + 3 x8,3 + 4 x8,4 - 2 x7,2 - 3 x7,3 - 4 x7,4 - 5 x7,5 <= -1
1 x10,1 + 2 x10,2 + 3 x10,3 + 4 x10,4 + 5 x10,5 - 2 x9,2 - 3 x9,3 - 4 x9,4 - 5 x9,5 - 6 x9,6 <= -1
Bounds
0 <= x0,5 <= 1
0 <= x1,5 <= 1
0 <= x2,3 <= 1
0 <= x3,2 <= 1
0 <= x4,1 <= 1
0 <= x5,4 <= 1
0 <= x5,5 <= 1
0 <= x6,2 <= 1
0 <= x6,3 <= 1
0 <= x7,2 <= 1
0 <= x7,3 <= 1
0 <= x7,4 <= 1
0 <= x7,5 <= 1
0 <= x8,1 <= 1
0 <= x8,2 <= 1
0 <= x8,3 <= 1
0 <= x8,4 <= 1
0 <= x9,2 <= 1
0 <= x9,3 <= 1
0 <= x9,4 <= 1
0 <= x9,5 <= 1
0 <= x9,6 <= 1
0 <= x10,1 <= 1
0 <= x10,2 <= 1
0 <= x10,3 <= 1
0 <= x10,4 <= 1
0 <= x10,5 <= 1
M1 >= 1
M2 >= 1
Generals
x0,5
x1,5
x2,3
x3,2
x4,1
x5,4
x5,5
x6,2
x6,3
x7,2
x7,3
x7,4
x7,5
x8,1
x8,2
x8,3
x8,4
x9,2
x9,3
x9,4
x9,5
x9,6
x10,1
x10,2
x10,3
x10,4
x10,5
M1
M2
End
