TC_ILP/hal_1.0.sol
<?xml version = "1.0" encoding="UTF-8" standalone="yes"?>
<CPLEXSolution version="1.2">
 <header
   problemName="hal_1.0.lp"
   solutionName="incumbent"
   solutionIndex="-1"
   objectiveValue="5"
   solutionTypeValue="3"
   solutionTypeString="primal"
   solutionStatusValue="101"
   solutionStatusString="integer optimal solution"
   solutionMethodString="mip"
   primalFeasible="1"
   dualFeasible="1"
   MIPNodes="0"
   MIPIterations="2"
   writeLevel="1"/>
 <quality
   epInt="1.0000000000000001e-05"
   epRHS="9.9999999999999995e-07"
   maxIntInfeas="0"
   maxPrimalInfeas="0"
   maxX="4"
   maxSlack="3"/>
 <linearConstraints>
  <constraint name="c1" index="0" slack="0"/>
  <constraint name="c2" index="1" slack="0"/>
  <constraint name="c3" index="2" slack="0"/>
  <constraint name="c4" index="3" slack="0"/>
  <constraint name="c5" index="4" slack="0"/>
  <constraint name="c6" index="5" slack="0"/>
  <constraint name="c7" index="6" slack="0"/>
  <constraint name="c8" index="7" slack="0"/>
  <constraint name="c9" index="8" slack="0"/>
  <constraint name="c10" index="9" slack="0"/>
  <constraint name="c11" index="10" slack="0"/>
  <constraint name="c12" index="11" slack="0"/>
  <constraint name="c13" index="12" slack="0"/>
  <constraint name="c14" index="13" slack="3"/>
  <constraint name="c15" index="14" slack="0"/>
  <constraint name="c16" index="15" slack="2"/>
  <constraint name="c17" index="16" slack="1"/>
  <constraint name="c18" index="17" slack="2"/>
  <constraint name="c19" index="18" slack="0"/>
  <constraint name="c20" index="19" slack="0"/>
  <constraint name="c21" index="20" slack="1"/>
  <constraint name="c22" index="21" slack="0"/>
  <constraint name="c23" index="22" slack="0"/>
  <constraint name="c24" index="23" slack="0"/>
  <constraint name="c25" index="24" slack="0"/>
  <constraint name="c26" index="25" slack="0"/>
  <constraint name="c27" index="26" slack="0"/>
  <constraint name="c28" index="27" slack="1"/>
  <constraint name="c29" index="28" slack="0"/>
 </linearConstraints>
 <variables>
  <variable name="M1" index="0" value="4"/>
  <variable name="M2" index="1" value="1"/>
  <variable name="x0,5" index="2" value="1"/>
  <variable name="x1,5" index="3" value="1"/>
  <variable name="x2,3" index="4" value="1"/>
  <variable name="x3,2" index="5" value="1"/>
  <variable name="x4,1" index="6" value="1"/>
  <variable name="x5,4" index="7" value="1"/>
  <variable name="x5,5" index="8" value="0"/>
  <variable name="x6,2" index="9" value="1"/>
  <variable name="x6,3" index="10" value="0"/>
  <variable name="x7,2" index="11" value="0"/>
  <variable name="x7,3" index="12" value="0"/>
  <variable name="x7,4" index="13" value="0"/>
  <variable name="x7,5" index="14" value="1"/>
  <variable name="x8,1" index="15" value="0"/>
  <variable name="x8,2" index="16" value="0"/>
  <variable name="x8,3" index="17" value="1"/>
  <variable name="x8,4" index="18" value="-0"/>
  <variable name="x9,2" index="19" value="0"/>
  <variable name="x9,3" index="20" value="0"/>
  <variable name="x9,4" index="21" value="0"/>
  <variable name="x9,5" index="22" value="0"/>
  <variable name="x9,6" index="23" value="1"/>
  <variable name="x10,1" index="24" value="0"/>
  <variable name="x10,2" index="25" value="0"/>
  <variable name="x10,3" index="26" value="0"/>
  <variable name="x10,4" index="27" value="0"/>
  <variable name="x10,5" index="28" value="1"/>
  <variable name="x6,1" index="29" value="0"/>
  <variable name="x7,1" index="30" value="0"/>
  <variable name="x2,2" index="31" value="0"/>
  <variable name="x2,4" index="32" value="0"/>
  <variable name="x5,3" index="33" value="0"/>
  <variable name="x6,4" index="34" value="0"/>
  <variable name="x0,4" index="35" value="0"/>
  <variable name="x1,4" index="36" value="0"/>
  <variable name="x0,6" index="37" value="0"/>
  <variable name="x1,6" index="38" value="0"/>
  <variable name="x5,6" index="39" value="0"/>
  <variable name="x7,6" index="40" value="0"/>
 </variables>
</CPLEXSolution>
